DIMACS2
80 237 16 20 179 167 210 47 33 53 201 96 121 125 192 17 264 299 77 178 185 155 270 25 168 120 230 113 28 127 277 313 130 111 308 148 232 88 98 171 213 246 70 318 108 2 142 271 310 235 206 55 73 57 11 41 26 283 109 241 103 110 18 207 32 63 29 301 294 132 311 175 122 194 43 138 302 100 216 180 149
p edge 320 1334
e 0 137 1.0
e 1 148 21.0
e 1 74 1.0
e 1 219 3.0
e 1 153 2.0
e 1 8 7.0
e 2 112 10.0
e 2 187 5.0
e 2 272 26.0
e 2 243 10.0
e 2 51 37.0
e 2 80 16.0
e 2 113 21.0
e 2 253 25.0
e 2 129 14.0
e 2 209 15.0
e 2 280 35.0
e 2 49 25.0
e 2 200 26.0
e 2 218 3.0
e 2 248 40.0
e 2 180 48.0
e 2 216 43.0
e 3 22 1.0
e 4 275 1.0
e 5 205 1.0
e 6 136 1.0
e 7 306 2.0
e 8 170 1.0
e 9 289 1.0
e 10 129 2.0
e 11 126 45.0
e 11 211 31.0
e 11 205 49.0
e 11 285 6.0
e 11 100 49.0
e 11 81 22.0
e 11 260 49.0
e 11 70 3.0
e 11 41 12.0
e 11 25 3.0
e 11 71 13.0
e 11 148 40.0
e 11 189 8.0
e 11 62 22.0
e 11 141 23.0
e 11 91 2.0
e 12 51 2.0
e 12 24 5.0
e 13 211 1.0
e 14 175 41.0
e 14 136 11.0
e 14 93 6.0
e 14 279 7.0
e 14 153 1.0
e 15 80 5.0
e 16 259 42.0
e 16 251 25.0
e 16 73 21.0
e 16 249 6.0
e 16 78 6.0
e 16 5 39.0
e 16 142 9.0
e 16 80 12.0
e 16 130 22.0
e 16 300 29.0
e 16 75 5.0
e 16 86 41.0
e 16 253 14.0
e 16 245 11.0
e 16 194 45.0
e 16 280 48.0
e 16 243 26.0
e 17 81 32.0
e 17 38 38.0
e 17 205 5.0
e 17 179 16.0
e 17 153 2.0
e 17 257 10.0
e 17 57 15.0
e 17 218 45.0
e 17 20 31.0
e 17 83 33.0
e 17 233 32.0
e 17 39 41.0
e 17 148 47.0
e 17 36 43.0
e 17 226 18.0
e 17 302 34.0
e 17 121 1.0
e 18 125 12.0
e 18 94 45.0
e 18 54 5.0
e 18 142 49.0
e 18 227 8.0
e 18 43 33.0
e 18 27 35.0
e 18 216 48.0
e 18 250 19.0
e 18 300 6.0
e 18 113 17.0
e 18 286 25.0
e 18 174 23.0
e 18 224 14.0
e 18 31 41.0
e 18 104 27.0
e 18 86 40.0
e 19 13 1.0
e 20 26 42.0
e 20 32 33.0
e 20 179 18.0
e 20 140 45.0
e 20 106 45.0
e 20 234 49.0
e 20 190 18.0
e 20 191 14.0
e 20 256 30.0
e 20 62 35.0
e 20 158 19.0
e 20 119 47.0
e 20 14 22.0
e 20 267 10.0
e 20 72 49.0
e 21 244 1.0
e 21 186 1.0
e 22 194 18.0
e 23 191 2.0
e 24 118 2.0
e 25 133 30.0
e 25 301 27.0
e 25 311 21.0
e 25 302 12.0
e 25 267 22.0
e 25 26 42.0
e 25 104 22.0
e 25 165 3.0
e 25 306 34.0
e 25 149 39.0
e 25 74 27.0
e 25 159 23.0
e 25 12 4.0
e 25 34 6.0
e 25 182 38.0
e 25 62 12.0
e 26 229 49.0
e 26 187 11.0
e 26 118 8.0
e 26 162 27.0
e 26 123 14.0
e 26 126 16.0
e 26 53 14.0
e 26 185 25.0
e 26 97 26.0
e 26 174 26.0
e 26 245 46.0
e 26 302 1.0
e 26 251 39.0
e 26 220 10.0
e 26 89 15.0
e 27 29 3.0
e 27 22 8.0
e 27 69 12.0
e 27 229 12.0
e 28 216 30.0
e 28 30 24.0
e 28 73 45.0
e 28 224 29.0
e 28 89 36.0
e 28 261 16.0
e 28 93 27.0
e 28 242 12.0
e 28 62 12.0
e 28 148 34.0
e 28 263 13.0
e 28 151 40.0
e 28 137 3.0
e 28 231 19.0
e 28 178 3.0
e 28 201 29.0
e 28 83 13.0
e 29 196 33.0
e 29 6 30.0
e 29 157 13.0
e 29 227 26.0
e 29 98 33.0
e 29 130 36.0
e 29 212 44.0
e 29 103 1.0
e 29 273 34.0
e 29 261 43.0
e 29 224 18.0
e 29 177 30.0
e 29 10 8.0
e 29 111 7.0
e 29 28 20.0
e 29 86 8.0
e 30 128 1.0
e 31 132 3.0
e 31 106 4.0
e 32 204 38.0
e 32 171 2.0
e 32 95 43.0
e 32 313 46.0
e 32 244 44.0
e 32 69 17.0
e 32 271 47.0
e 32 316 13.0
e 32 106 49.0
e 32 174 15.0
e 32 105 25.0
e 32 197 12.0
e 32 228 45.0
e 32 5 15.0
e 32 229 16.0
e 32 264 9.0
e 33 303 10.0
e 33 134 19.0
e 33 135 20.0
e 33 21 48.0
e 33 111 18.0
e 33 94 28.0
e 33 146 40.0
e 33 305 47.0
e 33 60 24.0
e 33 42 17.0
e 33 180 22.0
e 33 257 38.0
e 33 168 47.0
e 33 243 35.0
e 33 103 18.0
e 33 255 7.0
e 33 254 28.0
e 34 66 1.0
e 35 267 2.0
e 36 223 1.0
e 37 241 24.0
e 37 154 1.0
e 38 216 19.0
e 39 139 2.0
e 40 92 1.0
e 40 300 1.0
e 41 99 16.0
e 41 208 30.0
e 41 90 15.0
e 41 148 31.0
e 41 273 2.0
e 41 96 7.0
e 41 31 39.0
e 41 130 5.0
e 41 297 25.0
e 41 270 34.0
e 41 89 40.0
e 41 264 3.0
e 41 268 2.0
e 41 113 14.0
e 41 272 37.0
e 41 55 44.0
e 42 121 4.0
e 43 77 43.0
e 43 291 48.0
e 43 46 2.0
e 43 164 30.0
e 43 212 19.0
e 43 142 24.0
e 43 88 28.0
e 43 194 18.0
e 43 246 25.0
e 43 14 25.0
e 43 285 37.0
e 43 108 13.0
e 43 201 5.0
e 43 288 11.0
e 43 274 20.0
e 43 26 14.0
e 44 121 18.0
e 44 182 1.0
e 45 317 1.0
e 46 248 2.0
e 47 188 47.0
e 47 7 13.0
e 47 187 48.0
e 47 317 37.0
e 47 1 10.0
e 47 258 9.0
e 47 232 3.0
e 47 177 11.0
e 47 196 46.0
e 47 22 1.0
e 47 220 30.0
e 47 19 49.0
e 47 168 13.0
e 47 213 36.0
e 47 207 6.0
e 48 141 1.0
e 49 280 2.0
e 50 193 1.0
e 51 203 1.0
e 52 208 1.0
e 53 82 28.0
e 53 230 49.0
e 53 63 23.0
e 53 228 40.0
e 53 207 39.0
e 53 296 43.0
e 53 165 27.0
e 53 294 29.0
e 53 23 33.0
e 53 304 25.0
e 53 54 28.0
e 53 21 32.0
e 53 250 9.0
e 53 132 47.0
e 53 244 31.0
e 54 204 1.0
e 55 278 11.0
e 55 80 45.0
e 55 149 1.0
e 55 318 14.0
e 55 91 34.0
e 55 17 7.0
e 55 170 2.0
e 55 171 9.0
e 55 127 12.0
e 55 93 2.0
e 55 173 37.0
e 55 213 36.0
e 55 214 38.0
e 55 113 36.0
e 56 223 2.0
e 56 125 39.0
e 57 92 23.0
e 57 137 48.0
e 57 265 29.0
e 57 209 39.0
e 57 262 6.0
e 57 90 18.0
e 57 109 24.0
e 57 23 19.0
e 57 103 20.0
e 57 142 40.0
e 57 219 32.0
e 57 111 22.0
e 57 316 11.0
e 57 247 34.0
e 57 172 36.0
e 57 235 17.0
e 58 299 13.0
e 58 201 21.0
e 58 128 5.0
e 59 255 2.0
e 60 149 6.0
e 61 234 1.0
e 62 63 43.0
e 63 94 36.0
e 63 297 9.0
e 63 114 24.0
e 63 61 15.0
e 63 60 47.0
e 63 225 11.0
e 63 246 45.0
e 63 187 14.0
e 63 166 15.0
e 63 273 49.0
e 63 25 49.0
e 63 128 31.0
e 63 50 20.0
e 63 210 39.0
e 64 0 1.0
e 65 142 44.0
e 66 100 15.0
e 67 196 1.0
e 68 98 20.0
e 69 55 4.0
e 69 80 7.0
e 69 97 11.0
e 70 244 35.0
e 70 256 20.0
e 70 98 2.0
e 70 251 22.0
e 70 185 42.0
e 70 156 47.0
e 70 298 42.0
e 70 195 16.0
e 70 296 1.0
e 70 181 15.0
e 70 316 15.0
e 70 171 1.0
e 71 98 18.0
e 72 227 1.0
e 73 52 49.0
e 73 30 10.0
e 73 56 8.0
e 73 142 47.0
e 73 203 21.0
e 73 169 14.0
e 73 12 27.0
e 73 25 36.0
e 73 148 33.0
e 73 0 2.0
e 73 279 33.0
e 73 238 3.0
e 73 312 5.0
e 73 134 43.0
e 74 141 1.0
e 74 258 1.0
e 75 92 1.0
e 76 53 2.0
e 76 286 2.0
e 77 223 44.0
e 77 35 46.0
e 77 94 35.0
e 77 241 14.0
e 77 55 12.0
e 77 102 45.0
e 77 259 17.0
e 77 303 14.0
e 77 299 17.0
e 77 125 33.0
e 77 28 49.0
e 77 290 33.0
e 77 210 32.0
e 77 232 46.0
e 77 54 22.0
e 77 44 35.0
e 78 59 1.0
e 79 248 2.0
e 80 185 3.0
e 81 302 21.0
e 82 195 1.0
e 83 223 1.0
e 84 124 1.0
e 85 30 1.0
e 86 157 1.0
e 87 155 27.0
e 87 261 1.0
e 88 70 5.0
e 88 154 8.0
e 88 143 41.0
e 88 162 29.0
e 88 270 1.0
e 88 65 46.0
e 88 116 3.0
e 88 290 35.0
e 88 265 32.0
e 88 37 48.0
e 88 138 12.0
e 88 158 9.0
e 88 173 6.0
e 88 156 40.0
e 88 245 34.0
e 88 72 17.0
e 89 68 1.0
e 90 218 1.0
e 91 131 1.0
e 92 8 2.0
e 93 189 4.0
e 94 3 1.0
e 95 68 2.0
e 96 112 19.0
e 96 309 30.0
e 96 15 1.0
e 96 308 3.0
e 96 45 19.0
e 96 106 1.0
e 96 119 8.0
e 96 242 28.0
e 96 88 39.0
e 96 258 34.0
e 96 252 27.0
e 96 179 46.0
e 96 292 37.0
e 96 307 42.0
e 96 278 34.0
e 97 163 1.0
e 98 104 37.0
e 98 7 14.0
e 98 181 27.0
e 98 25 11.0
e 98 59 39.0
e 98 130 43.0
e 98 188 7.0
e 98 95 23.0
e 98 131 31.0
e 98 221 17.0
e 98 203 5.0
e 99 10 3.0
e 100 285 4.0
e 100 103 25.0
e 100 63 44.0
e 100 307 45.0
e 100 308 44.0
e 100 133 46.0
e 100 72 28.0
e 100 84 13.0
e 100 160 17.0
e 100 122 24.0
e 100 32 29.0
e 100 210 9.0
e 100 190 28.0
e 100 113 2.0
e 100 64 24.0
e 101 96 28.0
e 102 78 1.0
e 103 101 11.0
e 103 58 37.0
e 103 1 27.0
e 103 232 23.0
e 103 292 19.0
e 103 117 13.0
e 103 254 32.0
e 103 212 14.0
e 103 272 9.0
e 103 9 19.0
e 103 94 49.0
e 103 262 21.0
e 103 181 30.0
e 104 260 1.0
e 105 258 2.0
e 106 126 1.0
e 107 37 5.0
e 108 276 2.0
e 108 293 17.0
e 108 100 37.0
e 108 190 16.0
e 108 95 44.0
e 108 214 18.0
e 108 302 25.0
e 108 294 19.0
e 108 304 14.0
e 108 135 3.0
e 108 235 10.0
e 108 237 24.0
e 108 277 11.0
e 108 40 4.0
e 108 197 5.0
e 108 249 19.0
e 109 200 10.0
e 109 265 39.0
e 109 229 43.0
e 109 192 44.0
e 109 101 26.0
e 109 107 41.0
e 109 77 24.0
e 109 198 14.0
e 109 98 1.0
e 109 31 7.0
e 109 38 32.0
e 109 189 35.0
e 109 210 26.0
e 109 14 34.0
e 110 86 35.0
e 110 136 24.0
e 110 232 36.0
e 110 121 10.0
e 110 102 29.0
e 110 295 44.0
e 110 113 30.0
e 110 88 15.0
e 110 162 7.0
e 110 313 19.0
e 110 281 24.0
e 110 307 1.0
e 110 203 34.0
e 110 15 6.0
e 110 274 40.0
e 111 230 22.0
e 111 271 11.0
e 111 232 23.0
e 111 18 14.0
e 111 91 3.0
e 111 70 18.0
e 111 163 5.0
e 111 270 15.0
e 111 74 10.0
e 111 184 49.0
e 111 262 36.0
e 111 58 11.0
e 112 152 1.0
e 113 190 2.0
e 113 184 30.0
e 113 15 2.0
e 113 164 33.0
e 113 182 42.0
e 113 256 46.0
e 113 301 12.0
e 113 202 34.0
e 114 126 1.0
e 115 243 1.0
e 116 125 15.0
e 117 248 2.0
e 118 46 1.0
e 119 63 20.0
e 120 8 32.0
e 120 185 38.0
e 120 147 27.0
e 120 48 15.0
e 120 63 10.0
e 120 215 24.0
e 120 303 10.0
e 120 286 31.0
e 120 16 3.0
e 120 12 43.0
e 120 40 31.0
e 120 121 41.0
e 120 164 13.0
e 120 69 2.0
e 120 41 25.0
e 120 130 41.0
e 120 157 20.0
e 121 13 25.0
e 121 149 28.0
e 121 263 10.0
e 121 266 29.0
e 121 158 7.0
e 121 2 32.0
e 121 125 23.0
e 121 317 6.0
e 121 109 32.0
e 121 28 13.0
e 121 267 36.0
e 121 249 30.0
e 122 61 25.0
e 122 17 45.0
e 122 165 29.0
e 122 166 9.0
e 122 118 36.0
e 122 131 4.0
e 122 154 10.0
e 122 201 35.0
e 122 9 32.0
e 122 84 45.0
e 122 53 39.0
e 122 283 35.0
e 122 251 8.0
e 122 85 10.0
e 122 202 23.0
e 122 298 49.0
e 123 139 1.0
e 124 86 1.0
e 125 170 43.0
e 125 19 34.0
e 125 57 42.0
e 125 250 4.0
e 125 310 43.0
e 125 269 12.0
e 125 277 25.0
e 125 292 15.0
e 125 194 7.0
e 125 232 36.0
e 126 211 1.0
e 127 82 10.0
e 127 34 17.0
e 127 69 26.0
e 127 301 1.0
e 127 236 37.0
e 127 318 4.0
e 127 113 3.0
e 127 29 14.0
e 127 52 27.0
e 127 91 45.0
e 127 270 6.0
e 127 215 26.0
e 127 2 39.0
e 127 191 19.0
e 127 314 48.0
e 128 39 1.0
e 129 20 26.0
e 130 155 8.0
e 130 254 18.0
e 130 110 24.0
e 130 176 48.0
e 130 84 29.0
e 130 235 42.0
e 130 205 3.0
e 130 132 28.0
e 130 48 32.0
e 130 236 25.0
e 130 119 34.0
e 130 142 21.0
e 131 89 1.0
e 132 46 34.0
e 132 263 25.0
e 132 1 44.0
e 132 313 3.0
e 132 111 29.0
e 132 119 2.0
e 132 155 47.0
e 132 138 35.0
e 132 180 30.0
e 132 210 6.0
e 132 95 8.0
e 132 10 1.0
e 132 123 9.0
e 133 285 1.0
e 134 70 10.0
e 135 173 1.0
e 136 269 1.0
e 137 92 2.0
e 138 281 23.0
e 138 207 21.0
e 138 45 44.0
e 138 194 14.0
e 138 245 10.0
e 138 183 9.0
e 138 282 17.0
e 138 96 29.0
e 138 185 5.0
e 138 241 4.0
e 138 42 23.0
e 138 76 26.0
e 138 16 6.0
e 138 29 8.0
e 139 75 1.0
e 140 310 17.0
e 141 6 1.0
e 142 24 2.0
e 142 225 19.0
e 142 185 30.0
e 142 289 11.0
e 142 96 24.0
e 142 26 47.0
e 142 232 6.0
e 142 113 46.0
e 142 55 3.0
e 143 111 20.0
e 144 70 30.0
e 145 6 1.0
e 146 277 36.0
e 146 215 5.0
e 147 47 48.0
e 148 39 28.0
e 148 96 47.0
e 148 18 23.0
e 148 168 43.0
e 148 249 9.0
e 148 116 34.0
e 148 138 2.0
e 148 122 19.0
e 148 69 47.0
e 148 130 46.0
e 148 238 8.0
e 149 83 8.0
e 149 175 38.0
e 149 78 14.0
e 149 145 15.0
e 149 36 46.0
e 149 115 1.0
e 149 97 10.0
e 149 146 27.0
e 149 305 11.0
e 149 79 31.0
e 149 318 5.0
e 149 237 10.0
e 150 316 1.0
e 151 252 5.0
e 152 139 1.0
e 153 85 1.0
e 154 111 29.0
e 155 291 38.0
e 155 16 12.0
e 155 210 46.0
e 155 140 5.0
e 155 314 44.0
e 155 222 30.0
e 155 76 29.0
e 155 269 32.0
e 155 31 40.0
e 155 119 41.0
e 155 2 32.0
e 155 311 15.0
e 155 32 4.0
e 155 72 26.0
e 156 257 2.0
e 157 123 1.0
e 158 90 1.0
e 159 290 1.0
e 160 85 1.0
e 161 224 1.0
e 162 47 1.0
e 163 192 24.0
e 164 259 1.0
e 165 216 10.0
e 166 19 1.0
e 167 231 22.0
e 167 4 47.0
e 167 312 4.0
e 167 26 49.0
e 167 19 49.0
e 167 201 6.0
e 167 161 12.0
e 167 169 34.0
e 167 242 43.0
e 167 111 16.0
e 167 318 19.0
e 167 313 21.0
e 167 268 4.0
e 167 17 28.0
e 167 294 14.0
e 167 206 11.0
e 168 274 34.0
e 168 76 13.0
e 168 24 14.0
e 168 263 44.0
e 168 277 18.0
e 168 169 18.0
e 168 293 48.0
e 168 122 27.0
e 168 68 34.0
e 168 99 26.0
e 168 9 47.0
e 168 177 34.0
e 168 246 8.0
e 168 313 3.0
e 169 110 11.0
e 170 71 1.0
e 171 234 40.0
e 171 77 9.0
e 171 61 9.0
e 171 318 10.0
e 171 18 42.0
e 171 313 33.0
e 171 87 39.0
e 171 287 41.0
e 171 98 3.0
e 171 39 40.0
e 171 20 2.0
e 171 197 29.0
e 171 306 13.0
e 171 185 35.0
e 172 222 1.0
e 173 149 28.0
e 174 253 3.0
e 175 74 39.0
e 175 47 26.0
e 175 226 22.0
e 175 161 11.0
e 175 100 40.0
e 175 185 5.0
e 175 130 30.0
e 175 165 37.0
e 175 148 16.0
e 175 266 30.0
e 175 113 21.0
e 175 294 13.0
e 175 138 47.0
e 175 36 36.0
e 176 159 1.0
e 177 113 13.0
e 178 276 32.0
e 178 27 8.0
e 178 251 33.0
e 178 161 5.0
e 178 87 11.0
e 178 29 36.0
e 178 175 46.0
e 178 318 47.0
e 178 225 31.0
e 178 192 49.0
e 178 228 27.0
e 178 185 49.0
e 178 268 13.0
e 178 99 7.0
e 178 142 29.0
e 178 193 35.0
e 179 216 35.0
e 179 217 38.0
e 179 21 15.0
e 179 192 49.0
e 179 0 14.0
e 179 315 19.0
e 179 247 23.0
e 179 122 41.0
e 179 107 45.0
e 179 142 20.0
e 179 293 36.0
e 179 194 15.0
e 179 121 2.0
e 179 318 33.0
e 180 200 27.0
e 180 239 31.0
e 180 42 12.0
e 180 277 31.0
e 180 175 18.0
e 180 252 48.0
e 180 167 36.0
e 180 3 47.0
e 180 138 22.0
e 180 62 34.0
e 180 63 48.0
e 180 268 35.0
e 180 278 11.0
e 180 185 6.0
e 181 239 1.0
e 182 275 1.0
e 183 151 2.0
e 184 291 1.0
e 185 71 40.0
e 185 192 10.0
e 185 49 6.0
e 185 98 17.0
e 185 36 3.0
e 185 281 21.0
e 186 228 6.0
e 186 201 14.0
e 187 232 35.0
e 188 210 47.0
e 189 185 40.0
e 190 297 2.0
e 191 75 2.0
e 192 198 28.0
e 192 255 3.0
e 192 167 38.0
e 192 127 38.0
e 192 194 26.0
e 192 100 26.0
e 192 215 8.0
e 192 24 42.0
e 192 294 19.0
e 192 87 47.0
e 192 41 35.0
e 192 168 17.0
e 193 65 2.0
e 194 134 33.0
e 194 124 21.0
e 194 121 38.0
e 194 62 17.0
e 194 20 46.0
e 194 226 44.0
e 194 53 11.0
e 194 235 16.0
e 194 32 39.0
e 194 101 4.0
e 195 261 1.0
e 196 135 1.0
e 197 196 1.0
e 198 239 1.0
e 199 104 1.0
e 200 13 1.0
e 201 145 24.0
e 201 65 43.0
e 201 210 30.0
e 201 107 26.0
e 201 24 30.0
e 201 185 11.0
e 201 277 20.0
e 201 33 26.0
e 201 199 9.0
e 201 168 9.0
e 201 318 3.0
e 202 159 1.0
e 203 283 14.0
e 204 314 1.0
e 205 238 2.0
e 206 296 41.0
e 206 278 33.0
e 206 35 43.0
e 206 294 42.0
e 206 172 7.0
e 206 225 6.0
e 206 246 3.0
e 206 197 7.0
e 206 20 5.0
e 206 192 15.0
e 206 318 3.0
e 206 168 32.0
e 206 102 32.0
e 206 120 21.0
e 206 287 41.0
e 207 294 25.0
e 207 299 45.0
e 207 133 20.0
e 207 125 23.0
e 207 154 9.0
e 207 27 17.0
e 207 146 41.0
e 207 195 32.0
e 207 102 12.0
e 207 185 34.0
e 207 33 10.0
e 207 37 9.0
e 207 120 33.0
e 208 289 2.0
e 209 219 1.0
e 210 54 25.0
e 210 103 43.0
e 210 64 9.0
e 210 287 6.0
e 210 318 3.0
e 210 319 46.0
e 210 37 4.0
e 210 238 26.0
e 210 88 46.0
e 211 99 1.0
e 212 246 4.0
e 213 310 42.0
e 213 155 47.0
e 213 103 13.0
e 213 108 19.0
e 213 64 25.0
e 213 186 21.0
e 213 56 28.0
e 213 279 29.0
e 213 282 42.0
e 213 175 3.0
e 213 318 40.0
e 213 149 8.0
e 213 45 18.0
e 213 305 28.0
e 213 192 17.0
e 214 70 6.0
e 215 160 2.0
e 216 304 35.0
e 216 127 6.0
e 216 264 49.0
e 216 318 43.0
e 216 210 23.0
e 216 206 38.0
e 216 33 13.0
e 216 11 16.0
e 216 246 46.0
e 216 312 38.0
e 216 319 12.0
e 217 184 1.0
e 218 129 1.0
e 219 61 2.0
e 220 150 1.0
e 221 7 1.0
e 222 305 2.0
e 223 298 2.0
e 224 209 1.0
e 225 175 46.0
e 226 105 1.0
e 227 23 1.0
e 228 167 9.0
e 229 266 2.0
e 230 246 10.0
e 230 318 47.0
e 230 3 18.0
e 230 67 9.0
e 230 308 39.0
e 230 288 15.0
e 230 103 17.0
e 230 108 16.0
e 230 225 45.0
e 230 299 46.0
e 230 319 7.0
e 230 270 12.0
e 230 77 7.0
e 230 127 22.0
e 230 155 23.0
e 231 133 1.0
e 232 109 24.0
e 232 294 4.0
e 232 108 39.0
e 232 155 32.0
e 232 56 16.0
e 232 79 33.0
e 232 169 7.0
e 232 40 44.0
e 232 114 2.0
e 233 183 2.0
e 234 98 33.0
e 235 109 42.0
e 235 167 17.0
e 235 149 35.0
e 235 132 37.0
e 235 243 44.0
e 235 255 26.0
e 235 283 4.0
e 235 306 45.0
e 235 125 12.0
e 235 233 35.0
e 235 232 11.0
e 235 228 41.0
e 236 231 3.0
e 237 204 15.0
e 237 230 15.0
e 237 55 30.0
e 237 235 31.0
e 237 142 25.0
e 237 66 39.0
e 237 143 27.0
e 237 109 23.0
e 237 110 29.0
e 237 246 44.0
e 237 144 49.0
e 237 111 5.0
e 237 125 32.0
e 237 270 29.0
e 237 247 46.0
e 238 113 38.0
e 239 112 1.0
e 240 140 1.0
e 241 211 26.0
e 241 185 23.0
e 241 169 33.0
e 241 198 22.0
e 241 143 39.0
e 241 109 15.0
e 241 264 1.0
e 241 121 14.0
e 241 283 7.0
e 241 240 2.0
e 241 287 37.0
e 241 110 41.0
e 241 46 42.0
e 241 34 8.0
e 242 81 1.0
e 243 206 33.0
e 244 260 2.0
e 245 127 29.0
e 246 191 41.0
e 246 11 49.0
e 246 114 11.0
e 246 214 33.0
e 246 170 20.0
e 246 66 29.0
e 246 240 3.0
e 246 156 35.0
e 246 283 16.0
e 247 183 1.0
e 248 207 45.0
e 249 271 30.0
e 250 113 1.0
e 251 303 1.0
e 252 291 1.0
e 253 166 2.0
e 254 144 1.0
e 255 208 1.0
e 256 129 1.0
e 257 141 2.0
e 258 193 3.0
e 259 98 5.0
e 260 276 1.0
e 261 281 2.0
e 262 62 3.0
e 263 73 37.0
e 264 79 13.0
e 264 202 8.0
e 264 27 44.0
e 264 60 5.0
e 264 270 2.0
e 264 288 10.0
e 264 171 48.0
e 264 4 32.0
e 264 115 39.0
e 264 271 49.0
e 264 130 49.0
e 264 277 4.0
e 264 47 6.0
e 265 245 5.0
e 266 22 1.0
e 267 13 1.0
e 268 125 3.0
e 269 65 1.0
e 270 208 42.0
e 270 201 48.0
e 270 48 8.0
e 270 143 32.0
e 270 277 10.0
e 270 290 5.0
e 270 73 34.0
e 270 66 10.0
e 270 192 48.0
e 270 150 45.0
e 271 235 21.0
e 271 115 45.0
e 271 116 45.0
e 271 232 15.0
e 271 178 41.0
e 271 5 20.0
e 271 230 8.0
e 271 186 40.0
e 271 201 49.0
e 271 318 47.0
e 271 179 42.0
e 271 34 42.0
e 271 233 16.0
e 272 275 1.0
e 273 160 1.0
e 274 11 43.0
e 275 83 2.0
e 276 231 1.0
e 277 151 47.0
e 277 132 40.0
e 277 194 40.0
e 277 271 11.0
e 277 35 36.0
e 277 116 19.0
e 277 120 44.0
e 277 145 30.0
e 277 246 18.0
e 278 209 2.0
e 279 48 2.0
e 280 315 1.0
e 281 112 2.0
e 282 188 1.0
e 283 138 24.0
e 283 132 44.0
e 283 67 4.0
e 283 11 12.0
e 283 49 27.0
e 283 145 38.0
e 283 302 23.0
e 283 294 30.0
e 283 232 1.0
e 283 212 38.0
e 283 240 22.0
e 284 13 1.0
e 284 41 7.0
e 285 253 2.0
e 286 6 2.0
e 287 318 16.0
e 288 60 1.0
e 289 117 1.0
e 290 124 2.0
e 291 162 1.0
e 292 282 1.0
e 293 236 1.0
e 294 152 7.0
e 294 295 46.0
e 294 237 29.0
e 294 73 44.0
e 294 42 3.0
e 294 264 18.0
e 294 43 4.0
e 294 44 32.0
e 295 142 30.0
e 296 283 28.0
e 297 257 1.0
e 298 13 1.0
e 299 52 41.0
e 299 233 27.0
e 299 235 26.0
e 299 246 49.0
e 299 308 7.0
e 299 171 28.0
e 299 43 6.0
e 299 172 19.0
e 299 173 34.0
e 299 146 5.0
e 299 147 49.0
e 299 294 17.0
e 299 44 42.0
e 300 105 1.0
e 301 144 10.0
e 301 294 19.0
e 301 147 45.0
e 301 189 9.0
e 301 148 47.0
e 301 149 17.0
e 301 295 24.0
e 301 179 47.0
e 301 43 37.0
e 301 150 32.0
e 301 201 3.0
e 301 270 38.0
e 301 151 14.0
e 301 47 31.0
e 302 315 43.0
e 302 147 20.0
e 302 148 44.0
e 302 210 49.0
e 302 49 38.0
e 302 50 34.0
e 302 318 19.0
e 302 51 11.0
e 302 53 38.0
e 302 264 15.0
e 302 151 44.0
e 303 222 1.0
e 304 110 11.0
e 305 137 1.0
e 306 8 1.0
e 307 117 1.0
e 308 38 38.0
e 308 79 16.0
e 308 171 44.0
e 308 176 21.0
e 308 177 46.0
e 308 57 43.0
e 308 235 24.0
e 308 178 45.0
e 308 67 47.0
e 308 199 10.0
e 308 294 19.0
e 308 264 44.0
e 308 237 21.0
e 309 140 1.0
e 310 152 43.0
e 310 50 29.0
e 310 73 6.0
e 310 216 46.0
e 310 295 34.0
e 310 176 27.0
e 310 178 8.0
e 310 230 6.0
e 310 68 49.0
e 310 179 14.0
e 310 180 42.0
e 310 186 9.0
e 310 189 48.0
e 311 163 49.0
e 311 51 47.0
e 311 176 40.0
e 311 180 15.0
e 311 313 27.0
e 311 318 19.0
e 311 194 25.0
e 311 198 28.0
e 311 202 15.0
e 311 270 14.0
e 311 199 16.0
e 311 206 24.0
e 311 4 9.0
e 311 207 19.0
e 311 57 27.0
e 312 250 2.0
e 313 204 34.0
e 313 180 25.0
e 313 194 24.0
e 313 237 47.0
e 313 318 45.0
e 313 58 20.0
e 313 206 41.0
e 313 207 36.0
e 313 210 47.0
e 313 59 13.0
e 314 82 1.0
e 315 132 28.0
e 316 310 9.0
e 317 217 1.0
e 318 125 14.0
e 319 55 41.0
